(declare-fun x_ack!57 () (_ BitVec 64))
(declare-fun CF_ceil ((_ FloatingPoint 11 53)) (_ FloatingPoint 11 53))
(declare-fun CF_log ((_ FloatingPoint 11 53)) (_ FloatingPoint 11 53))
(assert (not (fp.eq ((_ to_fp 11 53) x_ack!57) ((_ to_fp 11 53) #x0000000000000000))))
(assert (not (fp.eq ((_ to_fp 11 53) x_ack!57) ((_ to_fp 11 53) #x0000000000000000))))
(assert (let ((a!1 (or (fp.isNaN (fp.abs ((_ to_fp 11 53) x_ack!57)))
               (fp.eq (fp.abs ((_ to_fp 11 53) x_ack!57))
                      ((_ to_fp 11 53) #x7ff0000000000000)))))
  (not a!1)))
(assert (not (fp.geq (fp.abs ((_ to_fp 11 53) x_ack!57))
             ((_ to_fp 11 53) #x3fe0000000000000))))
(assert (let ((a!1 (fp.div roundNearestTiesToEven
                   (CF_log (fp.abs ((_ to_fp 11 53) x_ack!57)))
                   ((_ to_fp 11 53) #x3fe62e42fefa39ef))))
  (bvslt ((_ fp.to_sbv 32) roundTowardZero (CF_ceil a!1)) #xfffffc03)))

(check-sat)
(exit)
